c A SAT instance generated from a 3-CNF formula that had 40 clauses and 10 variables
p cnf 10 40
10 9 -2 0
1 -8 10 0
-9 -5 8 0
-1 8 7 0
3 -9 -1 0
-6 4 -7 0
6 1 8 0
3 4 7 0
-9 10 -8 0
-8 -7 2 0
-9 -3 -7 0
10 3 -2 0
7 8 -6 0
10 1 -3 0
5 8 1 0
-6 2 -9 0
7 4 3 0
-5 6 9 0
-3 2 -5 0
8 7 -10 0
7 9 10 0
4 8 5 0
1 8 -6 0
-5 7 3 0
10 4 -1 0
1 4 -3 0
-2 -7 -1 0
3 1 8 0
3 -5 8 0
-10 -6 4 0
6 -5 4 0
-8 -7 9 0
10 -2 -3 0
6 -7 1 0
8 9 -2 0
10 -5 -3 0
1 5 -2 0
-7 -1 4 0
5 -8 -2 0
3 4 6 0
